# Objective value = 8
WA1n 1
WA1p 0
WA2n 0
WA2p 0
WB1n 1
WB1p 0
WB2n 0
WB2p 0
WC1n 1
WC1p 0
WC2n 0
WC2p 0
WD1n 0
WD1p 2
WE1n 3
WE1p 0
WE2n 0
WE2p 0
WT1n 0
WT1p 0
100 101
a 1
b 1
c 1
d 1
e 1
f 1
g 1
h 0
i 0
j 1
